\ This file has been generated by DOcplex
\ ENCODING=ISO-8859-1
\Problem name: masterprob

Minimize
 obj: x_2_0 + x_2_1 + x_2_2 + x_2_3 + x_2_4 + x_2_5 + x_3_0 + x_3_1 + x_3_2
      + x_3_3 + x_3_4 + x_3_5 + x_4_0 + x_4_1 + x_4_2 + x_4_3 + x_4_4 + x_4_5
      + x_5_0 + x_5_1 + x_5_2 + x_5_3 + x_5_4 + x_5_5 + x_6_0 + x_6_1 + x_6_2
      + x_6_3 + x_6_4 + x_6_5 + x_9_0 + x_9_1 + x_9_2 + x_9_3 + x_9_4 + x_9_5
      + x_19_0 + x_19_1 + x_19_2 + x_19_3 + x_19_4 + x_19_5
Subject To
 c1: x_2_0 + x_2_1 + x_3_1 + x_4_1 + x_5_1 + x_6_1 + x_9_1 = 1
 c2: x_3_0 + x_3_1 + x_3_2 + x_4_2 + x_5_2 + x_6_2 + x_9_2 = 1
 c3: x_4_0 + x_4_1 + x_4_2 + x_4_3 + x_4_4 + x_4_5 + x_5_3 + x_6_3 + x_9_3 = 1
 c4: x_2_1 + x_3_2 + x_4_3 + x_5_0 + x_5_1 + x_5_2 + x_5_3 + x_5_4 + x_5_5
     + x_6_4 + x_9_4 = 1
 c5: x_4_4 + x_5_4 + x_6_0 + x_6_1 + x_6_2 + x_6_3 + x_6_4 + x_6_5 + x_9_5 = 1
 c6: x_4_5 + x_5_5 + x_6_5 + x_9_0 + x_9_1 + x_9_2 + x_9_3 + x_9_4 + x_9_5 = 1
 c7: x_2_0 + x_2_1 <= 1
 c8: x_3_0 + x_3_1 + x_3_2 <= 1
 c9: x_4_0 + x_4_1 + x_4_2 + x_4_3 + x_4_4 + x_4_5 <= 1
 c10: x_5_0 + x_5_1 + x_5_2 + x_5_3 + x_5_4 + x_5_5 <= 1
 c11: x_6_0 + x_6_1 + x_6_2 + x_6_3 + x_6_4 + x_6_5 <= 1
 c12: x_9_0 + x_9_1 + x_9_2 + x_9_3 + x_9_4 + x_9_5 <= 1
 c13: <= 1

Bounds
 0 <= x_2_0 <= 1
 0 <= x_2_1 <= 1
 0 <= x_2_2 <= 1
 0 <= x_2_3 <= 1
 0 <= x_2_4 <= 1
 0 <= x_2_5 <= 1
 0 <= x_3_0 <= 1
 0 <= x_3_1 <= 1
 0 <= x_3_2 <= 1
 0 <= x_3_3 <= 1
 0 <= x_3_4 <= 1
 0 <= x_3_5 <= 1
 0 <= x_4_0 <= 1
 0 <= x_4_1 <= 1
 0 <= x_4_2 <= 1
 0 <= x_4_3 <= 1
 0 <= x_4_4 <= 1
 0 <= x_4_5 <= 1
 0 <= x_5_0 <= 1
 0 <= x_5_1 <= 1
 0 <= x_5_2 <= 1
 0 <= x_5_3 <= 1
 0 <= x_5_4 <= 1
 0 <= x_5_5 <= 1
 0 <= x_6_0 <= 1
 0 <= x_6_1 <= 1
 0 <= x_6_2 <= 1
 0 <= x_6_3 <= 1
 0 <= x_6_4 <= 1
 0 <= x_6_5 <= 1
 0 <= x_9_0 <= 1
 0 <= x_9_1 <= 1
 0 <= x_9_2 <= 1
 0 <= x_9_3 <= 1
 0 <= x_9_4 <= 1
 0 <= x_9_5 <= 1
 0 <= x_19_0 <= 1
 0 <= x_19_1 <= 1
 0 <= x_19_2 <= 1
 0 <= x_19_3 <= 1
 0 <= x_19_4 <= 1
 0 <= x_19_5 <= 1

Binaries
 x_2_0 x_2_1 x_2_2 x_2_3 x_2_4 x_2_5 x_3_0 x_3_1 x_3_2 x_3_3 x_3_4 x_3_5 x_4_0
 x_4_1 x_4_2 x_4_3 x_4_4 x_4_5 x_5_0 x_5_1 x_5_2 x_5_3 x_5_4 x_5_5 x_6_0 x_6_1
 x_6_2 x_6_3 x_6_4 x_6_5 x_9_0 x_9_1 x_9_2 x_9_3 x_9_4 x_9_5 x_19_0 x_19_1
 x_19_2 x_19_3 x_19_4 x_19_5
End
